3898
[0, 279, 2, 278, 3, 4, 5, 6, 7, 9, 10, 11, 12, 14, 13, 8, 276, 275, 274, 273, 272, 271, 270, 15, 16, 17, 132, 133, 269, 134, 268, 135, 267, 136, 266, 137, 265, 264, 138, 148, 149, 147, 139, 140, 141, 146, 142, 145, 143, 199, 201, 202, 203, 204, 205, 206, 211, 212, 215, 216, 219, 220, 209, 210, 213, 214, 217, 218, 221, 222, 223, 224, 225, 226, 227, 228, 229, 250, 249, 248, 247, 246, 243, 240, 241, 242, 239, 244, 238, 237, 230, 245, 231, 236, 232, 235, 233, 234, 207, 252, 253, 256, 257, 258, 259, 260, 261, 262, 263, 208, 251, 254, 255, 144, 198, 197, 196, 193, 192, 194, 195, 200, 18, 131, 19, 130, 20, 129, 127, 128, 153, 154, 152, 155, 151, 150, 177, 176, 175, 180, 181, 182, 183, 184, 186, 187, 188, 189, 190, 191, 185, 179, 178, 126, 125, 124, 123, 122, 121, 120, 119, 118, 156, 157, 158, 159, 174, 160, 161, 162, 163, 164, 165, 166, 167, 168, 169, 171, 170, 100, 101, 102, 103, 107, 109, 110, 113, 114, 116, 108, 88, 89, 90, 91, 92, 97, 93, 96, 94, 95, 80, 81, 82, 87, 111, 83, 86, 112, 84, 85, 115, 64, 65, 66, 67, 68, 69, 70, 71, 72, 73, 74, 76, 77, 75, 63, 62, 58, 43, 56, 57, 44, 55, 45, 54, 46, 53, 47, 52, 48, 51, 49, 50, 61, 117, 60, 59, 42, 41, 40, 39, 38, 37, 34, 35, 36, 79, 78, 104, 105, 172, 173, 106, 99, 98, 29, 30, 32, 33, 28, 27, 26, 25, 21, 24, 22, 23, 31, 277, 1]
